# Solution for model GasLib-40
# Objective value = 1.3106956636220191e+01
loadshed[innode_1] 0
loadshed[innode_2] 0
loadshed[innode_3] 0
loadshed[innode_4] 0
loadshed[innode_5] 0
loadshed[innode_6] 0
loadshed[innode_7] 0
loadshed[innode_8] 0
loadshed[source_1] -2.0775716674406897e-01
loadshed[source_2] -3.8097395054969230e-02
loadshed[source_3] 3.2876261168319643e-01
loadshed[sink_1] 0
loadshed[sink_2] 0
loadshed[sink_3] 0
loadshed[sink_4] 0
loadshed[sink_5] 0
loadshed[sink_6] 0
loadshed[sink_7] 0
loadshed[sink_8] 0
loadshed[sink_9] 0
loadshed[sink_10] 0
loadshed[sink_11] 0
loadshed[sink_12] 8.0144448221473774e-01
loadshed[sink_13] 0
loadshed[sink_14] 0
loadshed[sink_15] 0
loadshed[sink_16] 0
loadshed[sink_17] 0
loadshed[sink_18] 0
loadshed[sink_19] 0
loadshed[sink_20] 0
loadshed[sink_21] 0
loadshed[sink_22] 0
loadshed[sink_23] 0
loadshed[sink_24] 0
loadshed[sink_25] 0
loadshed[sink_26] 0
loadshed[sink_27] 0
loadshed[sink_28] 0
loadshed[sink_29] 0
flow[source_1,sink_3] 1.9093466597867172e+02
flow[innode_1,sink_16] 1.6354166666666970e+01
flow[innode_6,sink_13] 8.3630614928467111e+00
flow[sink_13,sink_14] -7.9911051738199568e+00
flow[sink_14,sink_10] -2.4345271840486625e+01
flow[sink_25,sink_26] 1.8141140289168035e+02
flow[sink_26,sink_9] 1.5043471003044743e+02
flow[sink_9,sink_18] 1.3408054336378078e+02
flow[sink_26,sink_4] 1.4622526194566888e+01
flow[sink_4,sink_20] -3.4439973805434761e+01
flow[sink_18,sink_6] 1.1772637669711412e+02
flow[sink_25,innode_8] -1.5822633264533536e+02
flow[sink_6,sink_7] 6.8663876697113665e+01
flow[sink_6,sink_22] 3.2708333333333641e+01
flow[sink_7,sink_24] 3.5955543363779817e+01
flow[sink_22,sink_1] 1.6354166666666970e+01
flow[sink_24,sink_21] 1.9601376697113146e+01
flow[sink_21,sink_12] 3.2472100304464777e+00
flow[sink_7,sink_5] 1.6354166666667368e+01
flow[sink_5,sink_17] 0
flow[sink_17,sink_4] -3.2708333333335005e+01
flow[sink_17,sink_8] 1.6354166666668334e+01
flow[sink_3,sink_23] 16.3541666666697
flow[sink_8,sink_20] 0
flow[sink_25,sink_20] 5.0794140472101390e+01
flow[sink_25,sink_15] -9.8696438877960389e+01
flow[sink_15,sink_29] -6.3984567050180878e+01
flow[sink_29,sink_28] 1.6354166666667879e+01
flow[sink_29,sink_2] 6.7420205161112492e+01
flow[sink_2,sink_15] 5.1066038494445827e+01
flow[sink_29,innode_7] -1.6411310554462759e+02
flow[innode_4,sink_19] 8.9761938507153857e+01
flow[sink_19,innode_3] 3.5822682804120745e+01
flow[innode_4,innode_5] 1.6354166666679703e+01
flow[sink_27,innode_5] -1.6354166666679703e+01
flow[sink_27,sink_19] 0
flow[sink_10,sink_11] 3.2708333333333641e+01
flow[sink_10,innode_2] -3.7585089036366185e+01
flow[sink_10,innode_3] -3.5822682804120745e+01
flow[innode_6,sink_25] -8.3630614928467111e+00
flow[sink_11,innode_1] 1.6354166666666970e+01
flow[sink_19,innode_2] 3.7585089036366185e+01
flow[source_3,innode_4] 1.0611610517383356e+02
flow[source_2,innode_7] 1.6411310554462759e+02
flow[sink_3,innode_8] 1.5822633264533536e+02
pressure[innode_1] 7.5238536661675127e+01
pressure[innode_2] 7.7376765156352320e+01
pressure[innode_3] 7.7297439881761363e+01
pressure[innode_4] 81.01325
pressure[innode_5] 8.1002000741808772e+01
pressure[innode_6] 7.4270544192552123e+01
pressure[innode_7] 81.01325
pressure[innode_8] 8.0375028351319472e+01
pressure[source_1] 81.01325
pressure[source_2] 81.01325
pressure[source_3] 81.01325
pressure[sink_1] 4.2393783893941951e+01
pressure[sink_2] 7.4916037453986050e+01
pressure[sink_3] 8.0375028351319472e+01
pressure[sink_4] 5.9634699798735419e+01
pressure[sink_5] 3.6750700120293629e+01
pressure[sink_6] 4.4494861504329322e+01
pressure[sink_7] 4.3552270147188345e+01
pressure[sink_8] 5.7767609955717035e+01
pressure[sink_9] 5.2489939967278836e+01
pressure[sink_10] 7.5390237969278672e+01
pressure[sink_11] 7.5238536661675127e+01
pressure[sink_12] 1.01325
pressure[sink_13] 7.4224440032139469e+01
pressure[sink_14] 7.4238740795539712e+01
pressure[sink_15] 7.4749318093075260e+01
pressure[sink_16] 7.4216886826857447e+01
pressure[sink_17] 5.8384695151130657e+01
pressure[sink_18] 4.7638506279629546e+01
pressure[sink_19] 7.7376765156352320e+01
pressure[sink_20] 6.2161376414240451e+01
pressure[sink_21] 2.1687850493300829e+00
pressure[sink_22] 4.3457553036296957e+01
pressure[sink_23] 8.0210310339659685e+01
pressure[sink_24] 2.3858520843996716e+00
pressure[sink_25] 7.4270544192552123e+01
pressure[sink_26] 61.4938456238999
pressure[sink_27] 8.0866291377726043e+01
pressure[sink_28] 7.6328585065416362e+01
pressure[sink_29] 7.6623867339033538e+01
interdiction[source_1,sink_3] 0
interdiction[innode_1,sink_16] 0
interdiction[innode_6,sink_13] 0
interdiction[sink_13,sink_14] 0
interdiction[sink_14,sink_10] 0
interdiction[sink_25,sink_26] 0
interdiction[sink_26,sink_9] 0
interdiction[sink_9,sink_18] 0
interdiction[sink_26,sink_4] 0
interdiction[sink_4,sink_20] 0
interdiction[sink_18,sink_6] 0
interdiction[sink_25,innode_8] 0
interdiction[sink_6,sink_7] 0
interdiction[sink_6,sink_22] 0
interdiction[sink_7,sink_24] 0
interdiction[sink_22,sink_1] 0
interdiction[sink_24,sink_21] 0
interdiction[sink_21,sink_12] 0
interdiction[sink_7,sink_5] 0
interdiction[sink_5,sink_17] 1
interdiction[sink_17,sink_4] 0
interdiction[sink_17,sink_8] 0
interdiction[sink_3,sink_23] 0
interdiction[sink_8,sink_20] 1
interdiction[sink_25,sink_20] 0
interdiction[sink_25,sink_15] 0
interdiction[sink_15,sink_29] 0
interdiction[sink_29,sink_28] 0
interdiction[sink_29,sink_2] 0
interdiction[sink_2,sink_15] 0
interdiction[sink_29,innode_7] 0
interdiction[innode_4,sink_19] 0
interdiction[sink_19,innode_3] 0
interdiction[innode_4,innode_5] 0
interdiction[sink_27,innode_5] 0
interdiction[sink_27,sink_19] 1
interdiction[sink_10,sink_11] 0
interdiction[sink_10,innode_2] 0
interdiction[sink_10,innode_3] 0
interdiction[innode_6,sink_25] 0
interdiction[sink_11,innode_1] 0
interdiction[sink_19,innode_2] 0
interdiction[source_3,innode_4] 0
interdiction[source_2,innode_7] 0
interdiction[sink_3,innode_8] 0
WCcheckFlow[source_1,sink_3] 39
WCcheckFlow[innode_1,sink_16] 1
WCcheckFlow[innode_6,sink_13] 13
WCcheckFlow[sink_13,sink_14] 12
WCcheckFlow[sink_14,sink_10] 11
WCcheckFlow[sink_25,sink_26] 15
WCcheckFlow[sink_26,sink_9] 10
WCcheckFlow[sink_9,sink_18] 9
WCcheckFlow[sink_26,sink_4] 4
WCcheckFlow[sink_4,sink_20] 1
WCcheckFlow[sink_18,sink_6] 8
WCcheckFlow[sink_25,innode_8] -36
WCcheckFlow[sink_6,sink_7] 5
WCcheckFlow[sink_6,sink_22] 2
WCcheckFlow[sink_7,sink_24] 3
WCcheckFlow[sink_22,sink_1] 1
WCcheckFlow[sink_24,sink_21] 2
WCcheckFlow[sink_21,sink_12] 1
WCcheckFlow[sink_7,sink_5] 1
WCcheckFlow[sink_5,sink_17] 0
WCcheckFlow[sink_17,sink_4] -2
WCcheckFlow[sink_17,sink_8] 1
WCcheckFlow[sink_3,sink_23] 1
WCcheckFlow[sink_8,sink_20] 0
WCcheckFlow[sink_25,sink_20] 0
WCcheckFlow[sink_25,sink_15] 6
WCcheckFlow[sink_15,sink_29] 5
WCcheckFlow[sink_29,sink_28] 1
WCcheckFlow[sink_29,sink_2] 1
WCcheckFlow[sink_2,sink_15] 0
WCcheckFlow[sink_29,innode_7] 2
WCcheckFlow[innode_4,sink_19] -4
WCcheckFlow[sink_19,innode_3] -5
WCcheckFlow[innode_4,innode_5] 2
WCcheckFlow[sink_27,innode_5] -1
WCcheckFlow[sink_27,sink_19] 0
WCcheckFlow[sink_10,sink_11] 3
WCcheckFlow[sink_10,innode_2] 1
WCcheckFlow[sink_10,innode_3] 6
WCcheckFlow[innode_6,sink_25] -14
WCcheckFlow[sink_11,innode_1] 2
WCcheckFlow[sink_19,innode_2] 0
WCcheckFlow[source_3,innode_4] -1
WCcheckFlow[source_2,innode_7] -1
WCcheckFlow[sink_3,innode_8] 37
